NAME : portcgen-30-18
COMMENT : portcgen N=30, seed=18
TYPE : TSP
DIMENSION : 30
EDGE_WEIGHT_TYPE : EUC_2D
NODE_COORD_SECTION
1 226247 75999
2 -211336 344267
3 124283 451614
4 121306 84106
5 71508 137205
6 -147887 151829
7 -50707 254406
8 -298757 -273395
9 105126 205964
10 223124 142686
11 308804 -211453
12 93667 -307316
13 -58774 -57375
14 69917 227286
15 135321 -448969
16 -6447 244901
17 35056 -75864
18 -10767 4576
19 249570 20150
20 86665 -11442
21 -160123 -41846
22 204644 -90634
23 199098 182349
24 14410 455439
25 62228 -93985
26 -280593 -66333
27 -212072 -89993
28 -233615 -57541
29 -132673 -1689
30 192530 -113142
